set DOMAINS := 1 2 3;
set STRATA[1] := 1 2;
set STRATA[2] := 1 2;
set STRATA[3] := 1 2 3;

param N :=
	1 1 140
	1 2 110
	2 1 135
	2 2 190
	3 1 200
	3 2 40
	3 3 70;

param S :=
	1 1 13.416408
	1 2 4.472136
	2 1 2.236068
	2 2 2.000000
	3 1 5.916080
	3 2 3
	3 3 6.324555;
	
param total :=
	1 2
	2 3
	3 5;
	
param kappa :=
	1 0.5
	2 0.2
	3 0.3;

param n := 828;

	
	      